244 5
10 10 10 10 10 

0 0 0 0 0 0 5 2 14 26 38 50 
0 0 0 0 0 0 1 3 
7 0 0 0 1 0 4 9 8 6 4 
7 0 0 0 9 0 1 5 
6 0 0 0 10 0 1 7 
4 0 0 0 7 0 1 7 
10 0 0 0 5 0 3 12 11 10 
7 0 0 0 9 0 3 12 11 10 
6 0 0 0 9 0 2 11 10 
3 0 0 0 10 0 1 13 
3 0 0 0 10 0 1 13 
4 0 0 0 5 0 1 13 
0 0 0 0 0 0 1 62 
0 0 0 0 0 0 3 15 16 17 
7 0 0 0 0 5 1 18 
3 0 0 0 0 4 1 18 
4 0 0 0 0 9 1 18 
3 0 0 0 0 10 2 20 19 
10 0 0 0 0 7 2 22 21 
8 0 0 0 0 4 2 22 21 
4 0 0 0 0 10 2 24 23 
9 0 0 0 0 9 2 24 23 
1 0 0 0 0 8 1 25 
1 0 0 0 0 9 1 25 
0 0 0 0 0 0 1 62 
0 0 0 0 0 0 1 27 
7 0 0 2 0 0 2 29 28 
4 0 0 7 0 0 2 31 30 
4 0 0 4 0 0 2 31 30 
8 0 0 10 0 0 3 36 34 32 
4 0 0 8 0 0 2 33 32 
9 0 0 9 0 0 1 35 
2 0 0 9 0 0 1 35 
4 0 0 9 0 0 1 35 
5 0 0 8 0 0 1 37 
8 0 0 9 0 0 1 37 
0 0 0 0 0 0 1 62 
0 0 0 0 0 0 3 39 41 42 
6 3 0 0 0 0 3 48 43 40 
4 6 0 0 0 0 2 47 44 
9 5 0 0 0 0 2 48 43 
1 10 0 0 0 0 2 47 45 
9 10 0 0 0 0 2 47 46 
6 6 0 0 0 0 1 45 
9 10 0 0 0 0 1 46 
7 7 0 0 0 0 1 49 
4 8 0 0 0 0 1 49 
1 10 0 0 0 0 1 49 
0 0 0 0 0 0 1 62 
0 0 0 0 0 0 1 51 
2 0 0 0 0 2 3 56 53 52 
7 0 0 0 0 5 2 55 54 
6 0 0 0 0 4 1 54 
5 0 0 0 0 9 3 60 58 57 
9 0 0 0 0 10 2 60 58 
2 0 0 0 0 10 2 60 57 
10 0 0 0 0 10 1 59 
4 0 0 0 0 7 1 59 
1 0 0 0 0 8 1 61 
4 0 0 0 0 10 1 61 
0 0 0 0 0 0 1 62 
0 0 0 0 0 0 5 63 75 87 99 111 
0 0 0 0 0 0 3 64 65 66 
10 6 0 0 0 0 3 73 68 67 
1 10 0 0 0 0 2 69 68 
7 3 0 0 0 0 1 67 
6 6 0 0 0 0 2 72 69 
5 9 0 0 0 0 2 72 71 
7 10 0 0 0 0 1 70 
3 6 0 0 0 0 1 71 
2 9 0 0 0 0 1 74 
1 6 0 0 0 0 1 74 
9 10 0 0 0 0 1 74 
0 0 0 0 0 0 1 123 
0 0 0 0 0 0 4 76 77 79 85 
9 0 0 0 0 4 3 84 83 78 
7 0 0 0 0 9 2 83 80 
2 0 0 0 0 9 1 80 
9 0 0 0 0 9 1 80 
4 0 0 0 0 5 1 81 
9 0 0 0 0 10 1 82 
6 0 0 0 0 6 1 86 
6 0 0 0 0 8 1 86 
4 0 0 0 0 8 1 86 
2 0 0 0 0 7 1 86 
0 0 0 0 0 0 1 123 
0 0 0 0 0 0 4 88 89 90 93 
7 0 0 2 0 0 3 97 95 91 
7 0 0 5 0 0 3 97 95 91 
7 0 0 9 0 0 2 95 91 
4 0 0 9 0 0 1 92 
8 0 0 8 0 0 1 94 
3 0 0 6 0 0 1 94 
3 0 0 10 0 0 1 96 
3 0 0 7 0 0 1 96 
2 0 0 9 0 0 1 98 
5 0 0 10 0 0 1 98 
0 0 0 0 0 0 1 123 
0 0 0 0 0 0 3 100 103 105 
1 4 0 0 0 0 1 101 
3 5 0 0 0 0 2 109 102 
3 5 0 0 0 0 3 108 106 104 
3 9 0 0 0 0 2 107 106 
5 10 0 0 0 0 1 107 
9 10 0 0 0 0 1 106 
6 10 0 0 0 0 1 110 
7 6 0 0 0 0 1 110 
4 7 0 0 0 0 1 110 
3 9 0 0 0 0 1 110 
0 0 0 0 0 0 1 123 
0 0 0 0 0 0 3 112 120 121 
2 0 0 2 0 0 3 119 118 113 
2 0 0 6 0 0 2 117 114 
8 0 0 8 0 0 1 115 
6 0 0 6 0 0 1 116 
1 0 0 10 0 0 1 122 
4 0 0 7 0 0 1 122 
5 0 0 10 0 0 1 122 
4 0 0 8 0 0 1 122 
1 0 0 8 0 0 1 122 
10 0 0 10 0 0 1 122 
0 0 0 0 0 0 1 123 
0 0 0 0 0 0 5 124 136 148 160 172 
0 0 0 0 0 0 2 125 126 
8 0 6 0 0 0 2 128 127 
4 0 2 0 0 0 2 131 129 
9 0 10 0 0 0 2 131 130 
1 0 7 0 0 0 2 134 131 
7 0 10 0 0 0 1 130 
3 0 7 0 0 0 2 134 132 
4 0 6 0 0 0 1 132 
3 0 10 0 0 0 1 133 
4 0 7 0 0 0 1 135 
3 0 10 0 0 0 1 135 
0 0 0 0 0 0 1 184 
0 0 0 0 0 0 4 137 141 142 146 
5 0 0 3 0 0 2 140 138 
6 0 0 8 0 0 2 145 139 
9 0 0 10 0 0 1 143 
2 0 0 5 0 0 1 143 
7 0 0 7 0 0 1 143 
3 0 0 10 0 0 1 143 
1 0 0 6 0 0 1 144 
5 0 0 9 0 0 1 147 
3 0 0 7 0 0 1 147 
10 0 0 10 0 0 1 147 
0 0 0 0 0 0 1 184 
0 0 0 0 0 0 2 149 150 
5 0 0 3 0 0 3 153 152 151 
10 0 0 9 0 0 2 152 151 
1 0 0 7 0 0 2 158 154 
6 0 0 8 0 0 2 158 154 
8 0 0 10 0 0 2 158 154 
8 0 0 10 0 0 1 155 
7 0 0 9 0 0 2 157 156 
1 0 0 4 0 0 1 159 
8 0 0 10 0 0 1 159 
2 0 0 5 0 0 1 159 
0 0 0 0 0 0 1 184 
0 0 0 0 0 0 4 161 162 163 166 
1 0 0 0 5 0 2 170 164 
5 0 0 0 6 0 2 170 165 
5 0 0 0 5 0 2 170 165 
7 0 0 0 10 0 1 165 
9 0 0 0 8 0 2 169 167 
8 0 0 0 8 0 2 169 167 
5 0 0 0 10 0 1 168 
5 0 0 0 10 0 1 171 
4 0 0 0 5 0 1 171 
1 0 0 0 8 0 1 171 
0 0 0 0 0 0 1 184 
0 0 0 0 0 0 3 173 174 175 
8 0 0 0 6 0 3 182 178 176 
8 0 0 0 10 0 2 182 176 
8 0 0 0 4 0 1 176 
5 0 0 0 8 0 2 180 177 
3 0 0 0 8 0 1 179 
2 0 0 0 10 0 1 179 
8 0 0 0 5 0 1 181 
8 0 0 0 7 0 1 181 
3 0 0 0 7 0 1 183 
8 0 0 0 10 0 1 183 
0 0 0 0 0 0 1 184 
0 0 0 0 0 0 4 185 197 209 221 
0 0 0 0 0 0 2 186 188 
8 0 0 0 0 1 3 192 190 187 
5 0 0 0 0 9 2 195 189 
7 0 0 0 0 8 3 195 194 192 
6 0 0 0 0 8 2 193 191 
10 0 0 0 0 10 2 193 191 
3 0 0 0 0 10 1 194 
10 0 0 0 0 7 1 193 
7 0 0 0 0 7 1 196 
1 0 0 0 0 7 1 196 
5 0 0 0 0 8 1 196 
0 0 0 0 0 0 1 233 
0 0 0 0 0 0 4 198 199 200 202 
2 0 0 4 0 0 1 201 
6 0 0 8 0 0 1 201 
1 0 0 9 0 0 1 201 
4 0 0 7 0 0 1 203 
5 0 0 5 0 0 1 203 
9 0 0 8 0 0 2 207 204 
4 0 0 6 0 0 2 206 205 
5 0 0 10 0 0 1 208 
4 0 0 9 0 0 1 208 
2 0 0 9 0 0 1 208 
0 0 0 0 0 0 1 233 
0 0 0 0 0 0 4 210 211 212 214 
10 0 0 5 0 0 1 213 
9 0 0 7 0 0 1 213 
1 0 0 9 0 0 1 213 
4 0 0 10 0 0 1 215 
1 0 0 10 0 0 1 215 
6 0 0 5 0 0 3 219 218 216 
1 0 0 8 0 0 1 217 
7 0 0 6 0 0 1 220 
6 0 0 6 0 0 1 220 
7 0 0 9 0 0 1 220 
0 0 0 0 0 0 1 233 
0 0 0 0 0 0 2 222 223 
3 0 0 7 0 0 2 227 224 
1 0 0 5 0 0 2 227 224 
5 0 0 8 0 0 2 226 225 
4 0 0 5 0 0 3 231 230 228 
9 0 0 10 0 0 3 231 230 228 
5 0 0 6 0 0 3 231 230 228 
9 0 0 10 0 0 1 229 
1 0 0 7 0 0 1 232 
5 0 0 7 0 0 1 232 
8 0 0 10 0 0 1 232 
0 0 0 0 0 0 1 233 
0 0 0 0 0 0 3 234 235 241 
8 2 0 0 0 0 3 240 239 238 
4 8 0 0 0 0 1 236 
2 10 0 0 0 0 2 243 237 
1 7 0 0 0 0 1 238 
7 10 0 0 0 0 1 242 
8 9 0 0 0 0 1 243 
6 10 0 0 0 0 1 242 
2 4 0 0 0 0 1 242 
4 7 0 0 0 0 1 244 
10 8 0 0 0 0 1 244 
0 0 0 0 0 0 0 
